NAME : instances/diverse-tsp/instance-32.tsp
COMMENT : No Comment
TYPE : TSP
DIMENSION: 49
EDGE_WEIGHT_TYPE : EUC_2D
NODE_COORD_SECTION
1 1225 90 
2 1079 133 
3 774 6 
4 361 277 
5 320 1486 
6 30 1226 
7 1322 457 
8 925 1563 
9 1277 1500 
10 275 18 
11 412 798 
12 1273 932 
13 1439 489 
14 653 1007 
15 306 1659 
16 910 1665 
17 1231 1511 
18 1691 456 
19 1634 1467 
20 1015 818 
21 1120 988 
22 785 1541 
23 631 1811 
24 82 534 
25 1085 1170 
26 1474 776 
27 380 810 
28 917 929 
29 1934 1295 
30 603 933 
31 163 1680 
32 1788 1208 
33 601 1341 
34 1621 1684 
35 10 773 
36 1460 762 
37 428 928 
38 619 37 
39 1417 1538 
40 557 68 
41 1348 123 
42 960 940 
43 301 112 
44 186 542 
45 1567 760 
46 422 344 
47 1738 1373 
48 835 1348 
49 1196 611 
EOF
